Route #1: 37 29 27 8 5 10 44
Route #2: 47 51 35 33 7 43
Route #3: 9 16 13 46 34 32 38 48 2
Route #4: 26 19 15 49 17 22 50 12 45 4
Route #5: 23 21 14 39 24 31 11 28 3
Route #6: 36 1 18 30 20 42 40
Route #7: 41 25 6
Cost 759